c FILE /home/rafael/Documents/HappySet/MIHS/inputs/happygen/output/graph_d_regular_k5_p0.1_v100_20241127_084040.txt
c SOURCE This is a d-regular graph formed for the happy graph colouring problem.
c DESCRIPTION It was generated using the problem generator of Rhyd Lewis
c
c GRAPH STATS
c Seed                             = 382705608
c Number of Nodes                  = 100
c Number of colours k              = 5
c Number of pre-assignments        = 10
c Degree of all vertices           = 6
c Density                          = 0.0606061
c 
c The degrees of nodes 1 to 100, respectively, are as follows 
c [6, 6, 6, 6, 6, 6, 6, 6, 6, 6, 6, 6, 6, 6, 6, 6, 6, 6, 6, 6, 6, 6, 6, 6, 6, 6, 
c  6, 6, 6, 6, 6, 6, 6, 6, 6, 6, 6, 6, 6, 6, 6, 6, 6, 6, 6, 6, 6, 6, 6, 6, 6, 
c  6, 6, 6, 6, 6, 6, 6, 6, 6, 6, 6, 6, 6, 6, 6, 6, 6, 6, 6, 6, 6, 6, 6, 6, 6, 
c  6, 6, 6, 6, 6, 6, 6, 6, 6, 6, 6, 6, 6, 6, 6, 6, 6, 6, 6, 6, 6, 6, 6, 6] 
c  
p edge 100 300 5
e 1 25
e 1 40
e 1 60
e 1 71
e 1 86
e 1 100
e 2 30
e 2 40
e 2 46
e 2 58
e 2 63
e 2 65
e 3 7
e 3 18
e 3 37
e 3 38
e 3 39
e 3 76
e 4 30
e 4 31
e 4 45
e 4 75
e 4 83
e 4 99
e 5 15
e 5 20
e 5 50
e 5 55
e 5 62
e 5 69
e 6 13
e 6 44
e 6 63
e 6 67
e 6 71
e 6 97
e 7 64
e 7 82
e 7 92
e 7 96
e 7 98
e 8 32
e 8 54
e 8 64
e 8 76
e 8 83
e 8 100
e 9 22
e 9 32
e 9 34
e 9 63
e 9 81
e 9 96
e 10 36
e 10 38
e 10 48
e 10 51
e 10 52
e 10 54
e 11 21
e 11 22
e 11 51
e 11 53
e 11 74
e 11 90
e 12 23
e 12 24
e 12 27
e 12 36
e 12 66
e 12 91
e 13 54
e 13 56
e 13 66
e 13 74
e 13 86
e 14 27
e 14 35
e 14 40
e 14 63
e 14 74
e 14 86
e 15 17
e 15 42
e 15 43
e 15 50
e 15 98
e 16 22
e 16 29
e 16 49
e 16 65
e 16 73
e 16 79
e 17 22
e 17 32
e 17 47
e 17 88
e 17 93
e 18 26
e 18 28
e 18 69
e 18 95
e 18 96
e 19 28
e 19 40
e 19 46
e 19 66
e 19 93
e 19 98
e 20 77
e 20 79
e 20 85
e 20 93
e 20 98
e 21 46
e 21 70
e 21 77
e 21 79
e 21 84
e 22 62
e 22 87
e 23 31
e 23 34
e 23 68
e 23 79
e 23 83
e 24 29
e 24 71
e 24 76
e 24 84
e 24 89
e 25 43
e 25 46
e 25 59
e 25 78
e 25 90
e 26 65
e 26 69
e 26 84
e 26 92
e 26 95
e 27 28
e 27 35
e 27 36
e 27 74
e 28 36
e 28 62
e 28 79
e 29 38
e 29 58
e 29 77
e 29 88
e 30 58
e 30 81
e 30 83
e 30 90
e 31 52
e 31 59
e 31 88
e 31 89
e 32 33
e 32 43
e 32 59
e 33 37
e 33 43
e 33 55
e 33 67
e 33 68
e 34 48
e 34 55
e 34 71
e 34 97
e 35 42
e 35 68
e 35 80
e 35 85
e 36 41
e 36 73
e 37 41
e 37 64
e 37 67
e 37 75
e 38 42
e 38 68
e 38 73
e 39 46
e 39 47
e 39 61
e 39 67
e 39 93
e 40 54
e 40 90
e 41 72
e 41 76
e 41 90
e 41 91
e 42 43
e 42 60
e 42 80
e 43 57
e 44 45
e 44 64
e 44 82
e 44 84
e 44 98
e 45 49
e 45 77
e 45 87
e 45 88
e 46 66
e 47 58
e 47 60
e 47 65
e 47 89
e 48 51
e 48 68
e 48 96
e 48 100
e 49 50
e 49 72
e 49 82
e 49 91
e 50 58
e 50 78
e 50 95
e 51 73
e 51 75
e 51 85
e 52 60
e 52 71
e 52 86
e 52 88
e 53 54
e 53 63
e 53 68
e 53 80
e 53 92
e 54 75
e 55 67
e 55 96
e 55 97
e 56 62
e 56 74
e 56 76
e 56 80
e 56 90
e 57 69
e 57 83
e 57 84
e 57 91
e 57 99
e 58 93
e 59 81
e 59 94
e 59 95
e 60 65
e 60 70
e 61 71
e 61 72
e 61 87
e 61 94
e 61 97
e 62 85
e 62 91
e 63 94
e 64 77
e 64 100
e 65 85
e 66 67
e 66 70
e 69 89
e 69 99
e 70 73
e 70 78
e 70 86
e 72 78
e 72 87
e 72 91
e 73 89
e 74 84
e 75 82
e 75 97
e 76 92
e 77 78
e 78 89
e 79 95
e 80 87
e 80 94
e 81 87
e 81 96
e 81 99
e 82 94
e 82 98
e 83 92
e 85 88
e 86 93
e 92 100
e 94 99
e 95 100
e 97 99
n 8 2
n 21 5
n 26 3
n 27 1
n 58 4
n 59 2
n 74 1
n 77 5
n 79 5
n 88 3
